
  32    4
  10   10   10   10

   0   0   0   0   0  11 2 3 6 7 8 10 14 15 16 17 31 
   8  10  10  10  10   3 28 9 4 
   4  10  10  10  10   8 30 29 26 23 22 21 13 11 
   7  10  10  10  10   3 22 21 5 
   1  10  10  10  10   5 24 20 19 13 11 
   3  10  10  10  10   6 26 23 21 20 19 18 
   5  10  10  10  10   3 23 18 9 
   1  10  10  10  10   4 25 22 21 19 
   1  10  10  10  10   2 20 19 
   4  10  10  10  10   2 27 25 
   1  10  10  10  10   1 12 
  10  10  10  10  10   1 18 
   6  10  10  10  10   1 18 
   4  10  10  10  10   1 21 
   9  10  10  10  10   1 20 
   3  10  10  10  10   1 19 
   4  10  10  10  10   1 18 
   4  10  10  10  10   1 32
   8  10  10  10  10   1 32
   4  10  10  10  10   1 32
   3  10  10  10  10   1 32
   9  10  10  10  10   1 32
   5  10  10  10  10   1 32
   4  10  10  10  10   1 32
   2  10  10  10  10   1 32
  10  10  10  10  10   1 32
   6  10  10  10  10   1 32
   7  10  10  10  10   1 32
   7  10  10  10  10   1 32
   1  10  10  10  10   1 32
   6  10  10  10  10   1 32
   0   0   0   0   0   0 
